[1456, 1512, 1508, 1456, 1344, 1512, 1452, 1452, 1452, 1456, 1232, 1232, 1136, 1136, 1072, 1036, 910, 910, 910, 1050, 720, 750, 880, 860, 720, 648, 520, 520, 396, 444, 384, 340, 340, 300, 256, 204, 166, 170, 158, 158, 162, 126, 136, 144, 136, 134, 122, 130, 128, 120, 126, 124, 116, 116, 120, 122, 120, 118, 118, 118, 120, 118, 120, 120, 120, 122, 120, 120, 120, 122, 120, 122, 120, 120, 120, 120, 120, 120, 120, 120, 118, 116, 122, 114, 122, 122, 120, 120, 120, 118, 120, 118, 120, 120, 120, 118, 118, 120, 116, 118, 116, 116, 116, 116, 118, 118, 118, 118, 120, 120, 118, 120, 122, 122, 122, 122, 122, 122, 120, 120, 122, 122, 122, 122, 120, 120, 120, 118, 118, 118, 118, 120, 118, 120, 120, 118, 116, 120, 120, 120, 118, 112, 116, 118, 118, 118, 116, 116, 116, 116, 120, 120, 116, 116, 118, 116, 116, 118, 120, 120, 120, 120, 120, 120, 116, 116, 120, 124, 120, 120, 122, 124, 124, 122, 120, 120, 120, 120, 120, 120, 120, 120, 120, 120, 120, 120, 120, 122, 120, 122, 120, 120, 122, 120, 120, 120, 124, 118, 118, 120]